N	q	DEPTOS
122	1	1
151	1	1
153	1	1
209	1	1
224	1	1
266	1	0
299	1	1
403	1	1
436	1	1
463	1	1
511	1	1
737	1	1
809	1	1
900	1	1
931	1	1
947	1	1
1010	1	1
1026	1	1
1188	1	1
1191	1	1
1201	1	1
1227	1	1
1306	1	1
1353	1	1
1383	1	1
1550	1	1
1651	1	1
1698	1	1
1700	1	1
1838	0	0
0	0	0
